language ESSENCE' 1.0

letting jobs = 102
letting horizon = 814
letting resourcesRenew = 2
letting resourcesNonrenew = 2
letting resourceLimits = [29, 26, 185, 133]
letting successors = [[2, 3, 4, 5, 6, 7, 10, 11, 12, 14, 18, 19], [27, 23, 21, 20, 13, 9], [21, 16, 13, 8], [23, 21, 15, 9], [23, 21, 16, 9], [23, 21, 17, 15], [31, 22, 21, 17], [27, 23, 15], [33, 31, 22, 17], [33, 31, 27, 17], [33, 31, 22, 17], [33, 31, 22, 17], [33, 31, 17], [33, 17], [39, 34, 33, 32, 31, 30, 28, 25], [39, 36, 34, 33, 31, 30, 29, 24], [39, 34, 30, 28, 25, 24], [33, 28, 25, 23], [39, 38, 36, 34, 32, 31, 27, 25], [42, 39, 36, 33, 31, 24], [56, 39, 36, 34, 33, 32, 30, 26], [56, 48, 41, 36, 35, 32, 30, 26], [30, 24], [56, 48, 41, 38, 35, 32, 26], [56, 41, 35, 29, 26], [51, 49, 46, 45, 44, 43, 40, 37], [49, 48, 45, 44, 43, 41, 40, 37], [56, 48, 43, 40, 36], [54, 53, 52, 50, 48, 46, 44, 43, 42], [62, 54, 53, 51, 50, 44, 38], [58, 55, 54, 53, 52, 51, 47, 43], [62, 58, 57, 54, 53, 52, 51, 50, 49], [54, 52, 48, 47, 46, 40], [58, 52, 47, 46, 45], [62, 58, 57, 54, 53, 52, 50, 49], [60, 58, 57, 55, 52, 51, 45], [62, 58, 57, 55, 54, 52, 47], [64, 60, 57, 52, 46], [75, 63, 58, 57, 55, 51], [75, 64, 63, 62, 61, 60, 59, 58], [75, 62, 61, 59, 57, 50], [75, 68, 64, 63, 62, 61, 59, 57], [75, 68, 64, 62, 61, 59, 57], [64, 61, 60, 59, 58, 57], [68, 62, 61, 54, 53], [75, 68, 63, 61, 59, 55], [75, 67, 59, 50], [68, 66, 64, 62, 59], [64, 63, 61, 55], [68, 66, 65, 64, 60], [74, 64, 61, 59], [75, 73, 68, 67, 59], [80, 71, 70, 69, 67, 66, 64], [78, 74, 72, 65, 63], [80, 77, 74, 72, 70, 69, 67, 66], [80, 75, 72, 70, 67, 66, 65], [80, 77, 70, 69, 67, 65], [80, 78, 77, 73, 68, 65], [86, 82, 80, 72, 70, 69, 65], [80, 77, 73, 72, 71, 70, 69], [80, 71, 70, 69, 67, 66], [78, 77, 73, 72, 71, 70], [92, 80, 77, 73, 70], [93, 92, 84, 79, 78, 77, 72], [93, 85, 81, 79, 76, 71], [93, 92, 91, 85, 81, 79, 76], [92, 91, 88, 86, 85, 84, 82, 81, 78], [101, 93, 87, 86, 79, 74], [91, 88, 87, 85, 84, 83, 78], [91, 85, 79, 76], [101, 100, 99, 98, 92, 91, 89, 87, 84, 83], [99, 98, 97, 90, 89, 88, 87, 85], [97, 93, 89, 88, 85, 82], [100, 99, 92, 91, 90, 89, 88, 84], [101, 99, 97, 90, 89, 88, 87, 86], [100, 99, 98, 89, 88, 84, 83], [100, 99, 91, 90, 89, 86, 82], [100, 99, 98, 97, 95, 90, 89], [89, 83], [98, 97, 95, 94, 89], [99, 97, 96, 87], [98, 96, 87], [97, 95, 90], [97, 96, 95], [101, 100, 94], [98, 95, 94], [95, 94], [96, 94], [96], [94], [96], [94], [95], [102], [102], [102], [102], [102], [102], [102], [102], []]
letting durations = [[0], [1, 2, 3], [2, 4, 7], [1, 6, 7], [3, 8, 10], [4, 7, 10], [5, 6, 8], [4, 6, 6], [4, 5, 9], [2, 7, 9], [9, 10, 10], [2, 3, 5], [2, 5, 5], [3, 6, 7], [4, 6, 10], [1, 4, 8], [2, 5, 7], [4, 6, 8], [1, 7, 7], [2, 10, 10], [4, 6, 10], [2, 8, 9], [5, 5, 9], [5, 6, 7], [5, 5, 6], [1, 8, 9], [3, 10, 10], [2, 4, 10], [1, 2, 3], [3, 4, 9], [5, 6, 10], [4, 5, 6], [1, 1, 10], [5, 7, 7], [4, 7, 9], [6, 7, 10], [7, 8, 8], [2, 3, 5], [1, 4, 5], [1, 6, 8], [5, 7, 9], [3, 5, 7], [2, 9, 10], [6, 8, 9], [1, 4, 6], [6, 6, 10], [2, 3, 9], [2, 3, 3], [2, 8, 10], [2, 3, 7], [3, 6, 7], [4, 6, 9], [1, 1, 3], [8, 9, 10], [2, 4, 10], [1, 2, 7], [1, 2, 10], [1, 1, 7], [4, 8, 9], [5, 5, 10], [1, 5, 7], [3, 10, 10], [4, 6, 9], [1, 4, 9], [4, 4, 6], [1, 1, 7], [5, 7, 8], [8, 10, 10], [1, 6, 7], [1, 2, 10], [8, 9, 9], [2, 2, 9], [1, 3, 8], [4, 4, 10], [5, 8, 10], [4, 5, 10], [1, 1, 6], [1, 3, 9], [3, 4, 8], [1, 1, 5], [2, 7, 8], [3, 6, 10], [3, 4, 7], [1, 3, 6], [1, 4, 10], [2, 3, 6], [5, 8, 10], [2, 3, 8], [3, 7, 9], [5, 8, 9], [2, 8, 9], [2, 8, 10], [4, 6, 9], [4, 9, 10], [1, 2, 8], [1, 4, 9], [2, 3, 5], [5, 5, 10], [3, 5, 10], [3, 3, 6], [5, 10, 10], [0]]
letting resourceUsage = [[[0, 0, 0, 0]], [[0, 3, 7, 0], [0, 2, 7, 0], [0, 1, 7, 0]], [[4, 0, 9, 0], [0, 1, 0, 3], [0, 1, 0, 2]], [[0, 1, 0, 10], [0, 1, 4, 0], [3, 0, 2, 0]], [[0, 2, 3, 0], [3, 0, 2, 0], [0, 2, 2, 0]], [[1, 0, 0, 10], [1, 0, 0, 8], [1, 0, 3, 0]], [[2, 0, 0, 6], [0, 3, 0, 6], [2, 0, 0, 4]], [[0, 3, 5, 0], [3, 0, 3, 0], [0, 3, 0, 8]], [[0, 5, 0, 2], [0, 3, 0, 2], [0, 3, 9, 0]], [[4, 0, 0, 3], [0, 4, 6, 0], [3, 0, 5, 0]], [[4, 0, 3, 0], [4, 0, 0, 2], [2, 0, 2, 0]], [[4, 0, 0, 6], [4, 0, 0, 5], [0, 2, 0, 3]], [[0, 5, 6, 0], [0, 3, 4, 0], [0, 3, 0, 1]], [[4, 0, 0, 5], [3, 0, 0, 3], [0, 2, 0, 1]], [[1, 0, 0, 6], [0, 3, 6, 0], [1, 0, 0, 5]], [[0, 3, 2, 0], [2, 0, 0, 3], [2, 0, 1, 0]], [[2, 0, 7, 0], [0, 1, 6, 0], [2, 0, 3, 0]], [[3, 0, 9, 0], [3, 0, 0, 3], [0, 1, 7, 0]], [[3, 0, 7, 0], [3, 0, 6, 0], [0, 2, 6, 0]], [[0, 2, 7, 0], [0, 1, 6, 0], [5, 0, 4, 0]], [[0, 4, 0, 8], [2, 0, 0, 6], [0, 3, 2, 0]], [[0, 3, 0, 5], [0, 3, 5, 0], [3, 0, 4, 0]], [[0, 2, 0, 4], [2, 0, 8, 0], [2, 0, 0, 1]], [[1, 0, 4, 0], [1, 0, 0, 1], [0, 4, 0, 1]], [[2, 0, 0, 9], [0, 3, 4, 0], [0, 3, 0, 8]], [[0, 3, 0, 6], [0, 2, 0, 5], [2, 0, 0, 3]], [[4, 0, 8, 0], [0, 2, 0, 3], [4, 0, 0, 2]], [[2, 0, 0, 4], [0, 1, 3, 0], [1, 0, 3, 0]], [[0, 4, 6, 0], [0, 2, 5, 0], [0, 2, 2, 0]], [[5, 0, 0, 8], [3, 0, 0, 7], [0, 1, 0, 5]], [[4, 0, 0, 5], [0, 4, 4, 0], [3, 0, 3, 0]], [[0, 2, 7, 0], [0, 1, 7, 0], [0, 1, 3, 0]], [[3, 0, 0, 2], [1, 0, 3, 0], [0, 2, 0, 2]], [[2, 0, 0, 3], [0, 3, 0, 3], [2, 0, 0, 2]], [[3, 0, 0, 9], [0, 2, 9, 0], [0, 2, 0, 4]], [[0, 3, 7, 0], [0, 3, 6, 0], [0, 3, 0, 1]], [[0, 5, 4, 0], [0, 4, 0, 5], [0, 3, 2, 0]], [[3, 0, 5, 0], [0, 2, 3, 0], [3, 0, 0, 2]], [[4, 0, 5, 0], [3, 0, 0, 3], [0, 2, 1, 0]], [[0, 2, 3, 0], [2, 0, 0, 3], [2, 0, 2, 0]], [[0, 3, 7, 0], [2, 0, 5, 0], [2, 0, 2, 0]], [[4, 0, 10, 0], [0, 3, 9, 0], [0, 3, 8, 0]], [[3, 0, 7, 0], [2, 0, 0, 5], [2, 0, 0, 4]], [[0, 5, 6, 0], [3, 0, 3, 0], [0, 2, 0, 7]], [[0, 5, 0, 9], [0, 4, 0, 5], [1, 0, 0, 2]], [[0, 4, 0, 5], [3, 0, 7, 0], [0, 2, 0, 1]], [[3, 0, 0, 9], [0, 2, 0, 6], [0, 2, 7, 0]], [[0, 4, 2, 0], [0, 3, 0, 6], [1, 0, 1, 0]], [[4, 0, 0, 6], [0, 4, 1, 0], [0, 4, 0, 6]], [[2, 0, 0, 7], [2, 0, 7, 0], [0, 1, 0, 2]], [[0, 1, 4, 0], [2, 0, 0, 8], [1, 0, 0, 7]], [[3, 0, 0, 7], [2, 0, 0, 7], [0, 1, 5, 0]], [[0, 5, 8, 0], [4, 0, 0, 4], [0, 3, 8, 0]], [[0, 2, 0, 6], [1, 0, 7, 0], [0, 2, 0, 1]], [[4, 0, 0, 6], [0, 3, 0, 2], [2, 0, 0, 2]], [[0, 2, 7, 0], [0, 1, 0, 6], [4, 0, 2, 0]], [[0, 1, 7, 0], [0, 1, 5, 0], [1, 0, 4, 0]], [[3, 0, 5, 0], [0, 4, 4, 0], [0, 3, 3, 0]], [[0, 5, 5, 0], [3, 0, 0, 3], [0, 3, 0, 3]], [[0, 3, 0, 3], [0, 1, 4, 0], [0, 1, 0, 3]], [[0, 5, 8, 0], [2, 0, 7, 0], [0, 3, 5, 0]], [[4, 0, 5, 0], [0, 3, 2, 0], [3, 0, 2, 0]], [[0, 3, 0, 7], [2, 0, 7, 0], [2, 0, 0, 2]], [[3, 0, 6, 0], [0, 3, 4, 0], [0, 1, 4, 0]], [[4, 0, 8, 0], [0, 3, 7, 0], [4, 0, 5, 0]], [[0, 2, 0, 8], [2, 0, 5, 0], [2, 0, 4, 0]], [[0, 3, 0, 7], [1, 0, 8, 0], [0, 3, 0, 3]], [[0, 4, 10, 0], [4, 0, 0, 2], [4, 0, 10, 0]], [[0, 2, 2, 0], [0, 2, 1, 0], [4, 0, 2, 0]], [[0, 4, 0, 5], [4, 0, 0, 5], [2, 0, 0, 1]], [[3, 0, 8, 0], [3, 0, 5, 0], [0, 2, 0, 6]], [[0, 5, 4, 0], [0, 3, 0, 8], [4, 0, 0, 6]], [[0, 2, 8, 0], [2, 0, 7, 0], [2, 0, 6, 0]], [[0, 2, 0, 6], [2, 0, 8, 0], [2, 0, 7, 0]], [[2, 0, 6, 0], [0, 3, 0, 4], [2, 0, 0, 3]], [[3, 0, 0, 3], [0, 3, 3, 0], [1, 0, 0, 1]], [[0, 4, 10, 0], [2, 0, 0, 8], [2, 0, 3, 0]], [[5, 0, 0, 8], [5, 0, 1, 0], [5, 0, 0, 7]], [[0, 1, 0, 3], [3, 0, 0, 2], [3, 0, 4, 0]], [[3, 0, 0, 10], [0, 1, 8, 0], [0, 1, 4, 0]], [[0, 4, 7, 0], [1, 0, 3, 0], [0, 2, 1, 0]], [[5, 0, 8, 0], [3, 0, 0, 6], [2, 0, 0, 1]], [[0, 3, 0, 10], [2, 0, 0, 7], [2, 0, 0, 4]], [[0, 4, 0, 8], [0, 2, 7, 0], [0, 2, 0, 5]], [[5, 0, 7, 0], [4, 0, 0, 2], [0, 2, 0, 2]], [[4, 0, 8, 0], [0, 2, 0, 5], [0, 2, 0, 4]], [[0, 4, 0, 10], [0, 4, 1, 0], [2, 0, 1, 0]], [[5, 0, 0, 7], [4, 0, 3, 0], [0, 1, 3, 0]], [[2, 0, 5, 0], [2, 0, 4, 0], [0, 1, 0, 5]], [[4, 0, 1, 0], [2, 0, 0, 3], [1, 0, 0, 2]], [[3, 0, 7, 0], [0, 3, 5, 0], [0, 3, 3, 0]], [[4, 0, 8, 0], [4, 0, 3, 0], [4, 0, 1, 0]], [[3, 0, 5, 0], [3, 0, 3, 0], [1, 0, 3, 0]], [[0, 2, 8, 0], [3, 0, 4, 0], [0, 1, 4, 0]], [[4, 0, 3, 0], [3, 0, 2, 0], [0, 1, 1, 0]], [[0, 4, 0, 8], [1, 0, 0, 8], [0, 2, 0, 8]], [[0, 2, 0, 5], [0, 1, 0, 4], [3, 0, 0, 3]], [[2, 0, 0, 10], [0, 3, 0, 8], [2, 0, 2, 0]], [[3, 0, 0, 4], [2, 0, 7, 0], [1, 0, 0, 4]], [[0, 3, 0, 6], [0, 3, 4, 0], [0, 3, 0, 2]], [[0, 4, 9, 0], [0, 3, 0, 5], [2, 0, 3, 0]], [[0, 0, 0, 0]]]
